0
19
86
39
39
11
36
56
0
27
0
12
39
9
22
22
0
186
29
0
25
14
102
76
0
16
106
0
70
13
43
19
71
18
22
26
48
19
53
30
0
0
14
0
0
24
62
20
0
40
0
58
69
16
12
17
0
43
34
33
25
15
18
0
12
10
22
24
0
10
126
0
33
17
11
24
0
22
21
40
16
0
0
71
23
23
0
16
0
16
20
32
0
21
116
49
43
0
17
19
